p tw 84 192
0 1
0 2
0 3
0 4
0 54
0 62
1 2
1 3
1 4
1 32
2 3
2 4
2 74
3 4
3 38
3 39
4 56
4 68
4 69
5 6
5 9
5 37
6 10
7 8
7 9
7 10
7 33
7 63
7 68
7 70
8 9
8 10
8 69
9 10
9 37
11 12
11 13
11 14
11 15
11 26
11 64
12 13
12 14
12 15
12 65
12 66
12 67
13 14
13 15
13 28
13 82
14 15
14 27
14 72
14 81
15 51
15 75
15 83
16 17
16 57
17 45
17 46
17 47
18 19
18 20
18 21
18 48
18 49
18 50
19 20
19 21
19 39
19 54
19 55
19 56
20 21
20 44
20 53
21 30
21 31
22 23
22 26
22 27
22 28
22 29
23 80
24 25
24 51
24 52
25 75
25 76
26 27
26 28
26 29
26 64
27 28
27 29
27 72
27 81
28 29
28 82
29 80
30 31
30 53
31 44
32 74
33 34
33 63
33 68
33 70
34 59
34 60
34 61
35 36
35 40
35 67
35 83
36 41
37 79
38 39
38 62
39 54
39 55
39 56
40 41
40 67
40 83
42 43
42 48
43 50
44 53
45 46
45 47
45 57
45 58
46 47
46 65
46 71
46 72
46 73
47 81
48 49
48 50
49 50
49 55
49 59
49 63
51 52
51 75
51 83
52 76
54 55
54 56
54 62
55 56
55 59
55 63
56 68
56 69
57 58
58 60
59 60
59 61
59 63
60 61
61 70
63 68
63 70
64 82
65 66
65 67
65 71
65 72
65 73
66 67
66 77
66 78
66 79
67 83
68 69
68 70
71 72
71 73
71 78
72 73
72 81
73 77
75 76
75 83
77 78
77 79
78 79
